NAME: random-88-658
TYPE: TSP
COMMENT: size=88 seed=658
DIMENSION: 178
EDGE_WEIGHT_TYPE: EUC_2D
NODE_COORD_SECTION
+0 6 200
-0 6 200
+1 490 808
-1 542 162
+2 772 617
-2 476 943
+3 474 402
-3 801 818
+4 839 447
-4 676 875
+5 96 405
-5 133 342
+6 748 52
-6 322 714
+7 297 163
-7 920 361
+8 612 629
-8 832 409
+9 30 483
-9 138 938
+10 472 214
-10 269 823
+11 214 801
-11 519 324
+12 839 217
-12 570 516
+13 932 692
-13 852 897
+14 552 238
-14 834 941
+15 111 71
-15 909 569
+16 155 999
-16 641 291
+17 943 858
-17 221 454
+18 76 707
-18 14 277
+19 961 984
-19 503 820
+20 702 798
-20 412 567
+21 749 452
-21 942 213
+22 679 236
-22 713 887
+23 480 317
-23 780 696
+24 791 955
-24 685 121
+25 267 597
-25 482 125
+26 799 292
-26 497 639
+27 355 263
-27 406 674
+28 702 8
-28 913 646
+29 501 609
-29 854 101
+30 907 46
-30 205 280
+31 911 795
-31 155 161
+32 955 420
-32 635 607
+33 550 760
-33 995 233
+34 94 737
-34 776 126
+35 184 482
-35 449 747
+36 719 424
-36 949 745
+37 675 261
-37 241 580
+38 456 145
-38 862 876
+39 461 164
-39 867 292
+40 473 437
-40 322 609
+41 958 181
-41 600 181
+42 747 329
-42 66 698
+43 34 22
-43 590 940
+44 498 686
-44 729 673
+45 167 627
-45 772 51
+46 610 103
-46 159 424
+47 826 158
-47 182 140
+48 65 631
-48 691 684
+49 261 86
-49 799 342
+50 461 196
-50 341 252
+51 16 340
-51 687 28
+52 206 242
-52 661 254
+53 867 620
-53 159 748
+54 342 858
-54 2 486
+55 229 929
-55 22 434
+56 243 175
-56 59 942
+57 91 917
-57 633 985
+58 873 595
-58 278 965
+59 579 299
-59 65 316
+60 180 407
-60 961 38
+61 374 383
-61 729 717
+62 984 763
-62 352 804
+63 988 760
-63 488 364
+64 71 789
-64 53 362
+65 200 335
-65 808 149
+66 488 876
-66 952 500
+67 655 625
-67 564 369
+68 968 929
-68 727 484
+69 767 27
-69 681 5
+70 39 567
-70 10 464
+71 112 965
-71 601 903
+72 159 890
-72 907 241
+73 324 471
-73 135 704
+74 466 77
-74 11 74
+75 548 127
-75 860 676
+76 261 881
-76 57 307
+77 908 65
-77 843 652
+78 998 266
-78 372 114
+79 88 256
-79 331 810
+80 757 144
-80 72 949
+81 177 887
-81 526 884
+82 418 803
-82 572 213
+83 140 814
-83 53 615
+84 731 683
-84 849 77
+85 866 72
-85 704 355
+86 728 817
-86 959 462
+87 513 512
-87 374 567
+88 386 374
-88 29 638
PRECEDENCE_SECTION
+0 -0
+1 -1
+2 -2
+3 -3
+4 -4
+5 -5
+6 -6
+7 -7
+8 -8
+9 -9
+10 -10
+11 -11
+12 -12
+13 -13
+14 -14
+15 -15
+16 -16
+17 -17
+18 -18
+19 -19
+20 -20
+21 -21
+22 -22
+23 -23
+24 -24
+25 -25
+26 -26
+27 -27
+28 -28
+29 -29
+30 -30
+31 -31
+32 -32
+33 -33
+34 -34
+35 -35
+36 -36
+37 -37
+38 -38
+39 -39
+40 -40
+41 -41
+42 -42
+43 -43
+44 -44
+45 -45
+46 -46
+47 -47
+48 -48
+49 -49
+50 -50
+51 -51
+52 -52
+53 -53
+54 -54
+55 -55
+56 -56
+57 -57
+58 -58
+59 -59
+60 -60
+61 -61
+62 -62
+63 -63
+64 -64
+65 -65
+66 -66
+67 -67
+68 -68
+69 -69
+70 -70
+71 -71
+72 -72
+73 -73
+74 -74
+75 -75
+76 -76
+77 -77
+78 -78
+79 -79
+80 -80
+81 -81
+82 -82
+83 -83
+84 -84
+85 -85
+86 -86
+87 -87
+88 -88
EOF
